402256
396018
211113
696298
917060
82327
676404
859055
122436
790174
617672
134091
831656
65357
363564
582235
534615
867646
169649
361261
753818
15408
860844
468324
3863
142207
993566
68635
703793
215226
277498
117704
957970
257279
109016
232212
22735
324805
429510
481406
653393
43200
341076
43212
682180
371435
687487
101654
416343
211525
415442
121024
50928
490228
476960
292183
61335
192655
187700
903697
372027
522723
968638
262411
878324
257351
915928
238745
426541
958144
794243
349148
319099
238811
367117
73031
173937
290139
254812
907730
345193
153700
500882
578270
970212
68297
300468
884321
690990
62658
832215
309470
496379
895938
816502
789538
788628
727934
375159
408115
